
Gurobi 10.0.3 (linux64, gurobi_cl) logging started Thu Nov  2 11:34:06 2023

Set parameter Username
Set parameter TimeLimit to value 3600
Set parameter LogFile to value "RCPSP_421.log"
Set parameter Threads to value 32
Academic license - for non-commercial use only - expires 2024-10-30
Using license file /home/jrivera6/gurobi-licenses/v1003/compute-0-39/gurobi.lic

Gurobi Optimizer version 10.0.3 build v10.0.3rc0 (linux64)
Copyright (c) 2023, Gurobi Optimization, LLC

Read MPS format model from file RCPSP_421.mps
Reading time = 0.01 seconds
RCPSP_421: 5349 rows, 2080 columns, 17994 nonzeros

CPU model: Intel(R) Xeon(R) Gold 6242 CPU @ 2.80GHz, instruction set [SSE2|AVX|AVX2|AVX512]
Thread count: 32 physical cores, 32 logical processors, using up to 32 threads

Optimize a model with 5349 rows, 2080 columns and 17994 nonzeros
Model fingerprint: 0xe12e6908
Variable types: 32 continuous, 2048 integer (2048 binary)
Coefficient statistics:
  Matrix range     [1e+00, 2e+02]
  Objective range  [1e+00, 1e+00]
  Bounds range     [1e+00, 1e+00]
  RHS range        [1e+00, 2e+02]
Presolve removed 3246 rows and 1285 columns
Presolve time: 0.22s
Presolved: 2103 rows, 795 columns, 6999 nonzeros
Variable types: 31 continuous, 764 integer (764 binary)

Root relaxation: objective 5.300000e+01, 285 iterations, 0.00 seconds (0.00 work units)

    Nodes    |    Current Node    |     Objective Bounds      |     Work
 Expl Unexpl |  Obj  Depth IntInf | Incumbent    BestBd   Gap | It/Node Time

     0     0   53.00000    0    2          -   53.00000      -     -    0s
H    0     0                      54.0000000   53.00000  1.85%     -    0s
     0     0   53.00000    0    4   54.00000   53.00000  1.85%     -    0s
     0     0   53.00000    0    1   54.00000   53.00000  1.85%     -    3s
H    0     0                      53.9999990   53.00000  1.85%     -    3s

Cutting planes:
  Gomory: 1
  MIR: 1
  RLT: 1

Explored 1 nodes (1201 simplex iterations) in 3.47 seconds (0.30 work units)
Thread count was 32 (of 32 available processors)

Solution count 2: 54 54 

Optimal solution found (tolerance 1.00e-04)
Warning: max constraint violation (1.0000e-06) exceeds tolerance
Best objective 5.399999900000e+01, best bound 5.399999602200e+01, gap 0.0000%

Wrote result file 'RCPSP_421.sol'

